benchmarks/bfuzz0/85495203138815215650296043251025460.smt2
(set-logic QF_FP)
(declare-const x0 (_ FloatingPoint 11 53))
(declare-const x1 (_ FloatingPoint 11 53))
(declare-const x2 (_ FloatingPoint 11 53))
(assert (fp.gt (fp.div RNE x2 x0) (fp.add RNE x1 x1)))
(assert (fp.lt (fp.add RNE x1 x0) (fp.neg x1)))
(assert (fp.eq (fp.add RNE x1 x1) (fp.add RNE x2 x1)))
(assert (fp.leq (fp.add RNE x1 x1) (fp.mul RNE x1 x2)))
(assert (fp.eq (fp.div RNE x2 x2) (fp.div RNE x2 x1)))
(assert (fp.lt (fp.sub RNE x2 x0) (fp.neg x0)))
(assert (fp.geq (fp.neg x2) (fp.neg x0)))
(check-sat)
