db/data/85495203138815215650296043251025460.z3.out
sat
-------------------
193.765800315
